p cnf 860 1989
1 0
2 0
3 0
4 0
5 0
6 0
7 0
8 0
9 0
10 0
-11 0
-12 0
-13 0
-14 0
-15 0
-16 0
-17 0
-18 0
-19 0
-20 0
-21 22 0
23 22 0
21 -23 -22 0
1 -22 0
-1 22 0
-24 25 0
26 25 0
24 -26 -25 0
27 -25 0
-27 25 0
-28 29 0
30 29 0
28 -30 -29 0
31 -29 0
-31 29 0
-32 33 0
34 33 0
32 -34 -33 0
35 -33 0
-35 33 0
-36 37 0
38 37 0
36 -38 -37 0
39 -37 0
-39 37 0
-40 41 0
42 41 0
40 -42 -41 0
2 -41 0
-2 41 0
-43 44 0
45 44 0
43 -45 -44 0
46 -44 0
-46 44 0
-47 48 0
49 48 0
47 -49 -48 0
50 -48 0
-50 48 0
-51 52 0
53 52 0
51 -53 -52 0
54 -52 0
-54 52 0
-55 56 0
57 56 0
55 -57 -56 0
3 -56 0
-3 56 0
-58 59 0
60 59 0
58 -60 -59 0
61 -59 0
-61 59 0
-62 63 0
64 63 0
62 -64 -63 0
4 -63 0
-4 63 0
-65 66 0
67 66 0
65 -67 -66 0
68 -66 0
-68 66 0
-69 70 0
71 70 0
69 -71 -70 0
72 -70 0
-72 70 0
-73 74 0
75 74 0
73 -75 -74 0
76 -74 0
-76 74 0
-77 78 0
79 78 0
77 -79 -78 0
80 -78 0
-80 78 0
-81 82 0
83 82 0
81 -83 -82 0
84 -82 0
-84 82 0
-85 86 0
87 86 0
85 -87 -86 0
88 -86 0
-88 86 0
-89 90 0
91 90 0
89 -91 -90 0
5 -90 0
-5 90 0
-92 93 0
94 93 0
92 -94 -93 0
95 -93 0
-95 93 0
-96 97 0
98 97 0
96 -98 -97 0
99 -97 0
-99 97 0
-100 101 0
102 101 0
100 -102 -101 0
103 -101 0
-103 101 0
-104 105 0
106 105 0
104 -106 -105 0
6 -105 0
-6 105 0
-107 108 0
109 108 0
107 -109 -108 0
110 -108 0
-110 108 0
-111 112 0
113 112 0
111 -113 -112 0
114 -112 0
-114 112 0
-115 116 0
117 116 0
115 -117 -116 0
7 -116 0
-7 116 0
-118 119 0
120 119 0
118 -120 -119 0
121 -119 0
-121 119 0
-122 123 0
124 123 0
122 -124 -123 0
125 -123 0
-125 123 0
-126 127 0
128 127 0
126 -128 -127 0
129 -127 0
-129 127 0
-130 131 0
132 131 0
130 -132 -131 0
133 -131 0
-133 131 0
-134 135 0
136 135 0
134 -136 -135 0
8 -135 0
-8 135 0
-137 138 0
139 138 0
137 -139 -138 0
140 -138 0
-140 138 0
-141 142 0
143 142 0
141 -143 -142 0
144 -142 0
-144 142 0
-145 146 0
147 146 0
145 -147 -146 0
148 -146 0
-148 146 0
-149 150 0
151 150 0
149 -151 -150 0
152 -150 0
-152 150 0
-153 154 0
155 154 0
153 -155 -154 0
9 -154 0
-9 154 0
-156 157 0
158 157 0
156 -158 -157 0
159 -157 0
-159 157 0
-160 161 0
162 161 0
160 -162 -161 0
163 -161 0
-163 161 0
-164 165 0
166 165 0
164 -166 -165 0
167 -165 0
-167 165 0
-168 169 0
170 169 0
168 -170 -169 0
10 -169 0
-10 169 0
-171 172 0
173 172 0
171 -173 -172 0
174 -172 0
-174 172 0
-175 176 0
177 176 0
175 -177 -176 0
178 -176 0
-178 176 0
-179 180 0
181 180 0
179 -181 -180 0
182 -180 0
-182 180 0
-183 184 0
185 184 0
183 -185 -184 0
11 -184 0
-11 184 0
-186 187 0
188 187 0
186 -188 -187 0
189 -187 0
-189 187 0
-190 191 0
192 191 0
190 -192 -191 0
193 -191 0
-193 191 0
-194 195 0
196 195 0
194 -196 -195 0
197 -195 0
-197 195 0
-198 199 0
200 199 0
198 -200 -199 0
201 -199 0
-201 199 0
-202 203 0
204 203 0
202 -204 -203 0
205 -203 0
-205 203 0
-206 207 0
208 207 0
206 -208 -207 0
12 -207 0
-12 207 0
-209 210 0
211 210 0
209 -211 -210 0
212 -210 0
-212 210 0
-213 214 0
215 214 0
213 -215 -214 0
216 -214 0
-216 214 0
-217 218 0
219 218 0
217 -219 -218 0
13 -218 0
-13 218 0
-220 221 0
222 221 0
220 -222 -221 0
223 -221 0
-223 221 0
-224 225 0
226 225 0
224 -226 -225 0
227 -225 0
-227 225 0
-228 229 0
230 229 0
228 -230 -229 0
231 -229 0
-231 229 0
-232 233 0
234 233 0
232 -234 -233 0
235 -233 0
-235 233 0
-236 237 0
238 237 0
236 -238 -237 0
239 -237 0
-239 237 0
-240 241 0
242 241 0
240 -242 -241 0
14 -241 0
-14 241 0
-243 244 0
245 244 0
243 -245 -244 0
246 -244 0
-246 244 0
-247 248 0
249 248 0
247 -249 -248 0
250 -248 0
-250 248 0
-251 252 0
253 252 0
251 -253 -252 0
254 -252 0
-254 252 0
-255 256 0
257 256 0
255 -257 -256 0
258 -256 0
-258 256 0
-259 260 0
261 260 0
259 -261 -260 0
15 -260 0
-15 260 0
-262 263 0
264 263 0
262 -264 -263 0
265 -263 0
-265 263 0
-266 267 0
268 267 0
266 -268 -267 0
269 -267 0
-269 267 0
-270 271 0
272 271 0
270 -272 -271 0
273 -271 0
-273 271 0
-274 275 0
276 275 0
274 -276 -275 0
277 -275 0
-277 275 0
-278 279 0
280 279 0
278 -280 -279 0
281 -279 0
-281 279 0
-282 283 0
284 283 0
282 -284 -283 0
285 -283 0
-285 283 0
-286 287 0
288 287 0
286 -288 -287 0
16 -287 0
-16 287 0
-289 290 0
291 290 0
289 -291 -290 0
292 -290 0
-292 290 0
-293 294 0
295 294 0
293 -295 -294 0
296 -294 0
-296 294 0
-297 298 0
299 298 0
297 -299 -298 0
300 -298 0
-300 298 0
-301 302 0
303 302 0
301 -303 -302 0
304 -302 0
-304 302 0
-305 306 0
307 306 0
305 -307 -306 0
308 -306 0
-308 306 0
-309 310 0
311 310 0
309 -311 -310 0
312 -310 0
-312 310 0
-313 314 0
315 314 0
313 -315 -314 0
17 -314 0
-17 314 0
-316 317 0
318 317 0
316 -318 -317 0
319 -317 0
-319 317 0
-320 321 0
322 321 0
320 -322 -321 0
323 -321 0
-323 321 0
-324 325 0
326 325 0
324 -326 -325 0
327 -325 0
-327 325 0
-328 329 0
330 329 0
328 -330 -329 0
331 -329 0
-331 329 0
-332 333 0
334 333 0
332 -334 -333 0
18 -333 0
-18 333 0
-335 336 0
337 336 0
335 -337 -336 0
338 -336 0
-338 336 0
-339 340 0
341 340 0
339 -341 -340 0
342 -340 0
-342 340 0
-343 344 0
345 344 0
343 -345 -344 0
346 -344 0
-346 344 0
-347 348 0
349 348 0
347 -349 -348 0
350 -348 0
-350 348 0
-351 352 0
353 352 0
351 -353 -352 0
19 -352 0
-19 352 0
-354 355 0
356 355 0
354 -356 -355 0
357 -355 0
-357 355 0
-358 359 0
360 359 0
358 -360 -359 0
361 -359 0
-361 359 0
-362 363 0
364 363 0
362 -364 -363 0
20 -363 0
-20 363 0
-365 366 0
367 366 0
365 -367 -366 0
368 -366 0
-368 366 0
-369 370 0
371 370 0
369 -371 -370 0
372 -370 0
-372 370 0
-373 374 0
375 374 0
373 -375 -374 0
376 -374 0
-376 374 0
-377 378 0
379 378 0
377 -379 -378 0
380 -378 0
-380 378 0
-381 382 0
-24 -383 382 0
24 381 -382 0
381 383 -382 0
21 -382 0
-21 382 0
-384 385 0
-28 -386 385 0
28 384 -385 0
384 386 -385 0
24 -385 0
-24 385 0
-387 388 0
-32 -389 388 0
32 387 -388 0
387 389 -388 0
28 -388 0
-28 388 0
-390 391 0
-36 -392 391 0
36 390 -391 0
390 392 -391 0
32 -391 0
-32 391 0
-393 394 0
-384 -395 394 0
-387 -386 -395 394 0
-396 0
384 387 390 393 -394 0
387 390 395 393 -394 0
384 386 390 393 -394 0
386 390 395 393 -394 0
384 390 395 393 -394 0
390 395 393 -394 0
384 386 387 393 -394 0
386 387 395 393 -394 0
384 386 393 -394 0
386 395 393 -394 0
384 386 395 393 -394 0
384 387 389 393 -394 0
387 389 395 393 -394 0
384 386 389 393 -394 0
386 389 395 393 -394 0
384 389 395 393 -394 0
389 395 393 -394 0
384 387 395 393 -394 0
387 395 393 -394 0
384 395 393 -394 0
395 393 -394 0
36 -394 0
-36 394 0
-397 398 0
-43 -399 398 0
43 397 -398 0
397 399 -398 0
40 -398 0
-40 398 0
-400 401 0
-47 -402 401 0
47 400 -401 0
400 402 -401 0
43 -401 0
-43 401 0
-403 404 0
-51 -405 404 0
51 403 -404 0
403 405 -404 0
47 -404 0
-47 404 0
51 -406 0
406 -51 0
-407 408 0
-58 -409 408 0
58 407 -408 0
407 409 -408 0
55 -408 0
-55 408 0
58 -410 0
410 -58 0
-411 412 0
-65 -413 412 0
65 411 -412 0
411 413 -412 0
62 -412 0
-62 412 0
-414 415 0
-69 -416 415 0
69 414 -415 0
414 416 -415 0
65 -415 0
-65 415 0
-417 418 0
-73 -419 418 0
73 417 -418 0
417 419 -418 0
69 -418 0
-69 418 0
-420 421 0
-77 -422 421 0
77 420 -421 0
420 422 -421 0
73 -421 0
-73 421 0
-423 424 0
-81 -425 424 0
81 423 -424 0
423 425 -424 0
77 -424 0
-77 424 0
-426 427 0
-85 -428 427 0
85 426 -427 0
426 428 -427 0
81 -427 0
-81 427 0
-429 430 0
-423 -431 430 0
-426 -425 -431 430 0
423 426 429 -430 0
426 431 429 -430 0
423 425 429 -430 0
425 431 429 -430 0
423 431 429 -430 0
431 429 -430 0
85 -430 0
-85 430 0
-432 433 0
-92 -434 433 0
92 432 -433 0
432 434 -433 0
89 -433 0
-89 433 0
-435 436 0
-96 -437 436 0
96 435 -436 0
435 437 -436 0
92 -436 0
-92 436 0
-438 439 0
-100 -440 439 0
100 438 -439 0
438 440 -439 0
96 -439 0
-96 439 0
100 -441 0
441 -100 0
-442 443 0
-107 -444 443 0
107 442 -443 0
442 444 -443 0
104 -443 0
-104 443 0
-445 446 0
-111 -447 446 0
111 445 -446 0
445 447 -446 0
107 -446 0
-107 446 0
-448 449 0
-442 -450 449 0
-445 -444 -450 449 0
442 445 448 -449 0
445 450 448 -449 0
442 444 448 -449 0
444 450 448 -449 0
442 450 448 -449 0
450 448 -449 0
111 -449 0
-111 449 0
-451 452 0
-118 -453 452 0
118 451 -452 0
451 453 -452 0
115 -452 0
-115 452 0
-454 455 0
-122 -456 455 0
122 454 -455 0
454 456 -455 0
118 -455 0
-118 455 0
-457 458 0
-126 -459 458 0
126 457 -458 0
457 459 -458 0
122 -458 0
-122 458 0
-460 461 0
-130 -462 461 0
130 460 -461 0
460 462 -461 0
126 -461 0
-126 461 0
-463 464 0
-457 -465 464 0
-460 -459 -465 464 0
457 460 463 -464 0
460 465 463 -464 0
457 459 463 -464 0
459 465 463 -464 0
457 465 463 -464 0
465 463 -464 0
130 -464 0
-130 464 0
-466 467 0
-137 -468 467 0
137 466 -467 0
466 468 -467 0
134 -467 0
-134 467 0
-469 470 0
-141 -471 470 0
141 469 -470 0
469 471 -470 0
137 -470 0
-137 470 0
-472 473 0
-145 -474 473 0
145 472 -473 0
472 474 -473 0
141 -473 0
-141 473 0
-475 476 0
-149 -477 476 0
149 475 -476 0
475 477 -476 0
145 -476 0
-145 476 0
-478 479 0
-472 -480 479 0
-475 -474 -480 479 0
472 475 478 -479 0
475 480 478 -479 0
472 474 478 -479 0
474 480 478 -479 0
472 480 478 -479 0
480 478 -479 0
149 -479 0
-149 479 0
-481 482 0
-156 -483 482 0
156 481 -482 0
481 483 -482 0
153 -482 0
-153 482 0
-484 485 0
-160 -486 485 0
160 484 -485 0
484 486 -485 0
156 -485 0
-156 485 0
-487 488 0
-164 -489 488 0
164 487 -488 0
487 489 -488 0
160 -488 0
-160 488 0
164 -490 0
490 -164 0
-491 492 0
-171 -493 492 0
171 491 -492 0
491 493 -492 0
168 -492 0
-168 492 0
-494 495 0
-175 -496 495 0
175 494 -495 0
494 496 -495 0
171 -495 0
-171 495 0
-497 498 0
-179 -499 498 0
179 497 -498 0
497 499 -498 0
175 -498 0
-175 498 0
179 -500 0
500 -179 0
-501 502 0
-186 -503 502 0
186 501 -502 0
501 503 -502 0
183 -502 0
-183 502 0
-504 505 0
-190 -506 505 0
190 504 -505 0
504 506 -505 0
186 -505 0
-186 505 0
-507 508 0
-194 -509 508 0
194 507 -508 0
507 509 -508 0
190 -508 0
-190 508 0
-510 511 0
-198 -512 511 0
198 510 -511 0
510 512 -511 0
194 -511 0
-194 511 0
-513 514 0
-202 -515 514 0
202 513 -514 0
513 515 -514 0
198 -514 0
-198 514 0
-516 517 0
-510 -518 517 0
-513 -512 -518 517 0
510 513 516 -517 0
513 518 516 -517 0
510 512 516 -517 0
512 518 516 -517 0
510 518 516 -517 0
518 516 -517 0
202 -517 0
-202 517 0
-519 520 0
-209 -521 520 0
209 519 -520 0
519 521 -520 0
206 -520 0
-206 520 0
-522 523 0
-213 -524 523 0
213 522 -523 0
522 524 -523 0
209 -523 0
-209 523 0
213 -525 0
525 -213 0
-526 527 0
-220 -528 527 0
220 526 -527 0
526 528 -527 0
217 -527 0
-217 527 0
-529 530 0
-224 -531 530 0
224 529 -530 0
529 531 -530 0
220 -530 0
-220 530 0
-532 533 0
-228 -534 533 0
228 532 -533 0
532 534 -533 0
224 -533 0
-224 533 0
-535 536 0
-232 -537 536 0
232 535 -536 0
535 537 -536 0
228 -536 0
-228 536 0
-538 539 0
-236 -540 539 0
236 538 -539 0
538 540 -539 0
232 -539 0
-232 539 0
-541 542 0
-538 -543 542 0
538 541 -542 0
543 541 -542 0
236 -542 0
-236 542 0
-544 545 0
-243 -546 545 0
243 544 -545 0
544 546 -545 0
240 -545 0
-240 545 0
-547 548 0
-247 -549 548 0
247 547 -548 0
547 549 -548 0
243 -548 0
-243 548 0
-550 551 0
-251 -552 551 0
251 550 -551 0
550 552 -551 0
247 -551 0
-247 551 0
-553 554 0
-255 -555 554 0
255 553 -554 0
553 555 -554 0
251 -554 0
-251 554 0
-556 557 0
-553 -558 557 0
553 556 -557 0
558 556 -557 0
255 -557 0
-255 557 0
-559 560 0
-262 -561 560 0
262 559 -560 0
559 561 -560 0
259 -560 0
-259 560 0
-562 563 0
-266 -564 563 0
266 562 -563 0
562 564 -563 0
262 -563 0
-262 563 0
-565 566 0
-270 -567 566 0
270 565 -566 0
565 567 -566 0
266 -566 0
-266 566 0
-568 569 0
-274 -570 569 0
274 568 -569 0
568 570 -569 0
270 -569 0
-270 569 0
-571 572 0
-278 -573 572 0
278 571 -572 0
571 573 -572 0
274 -572 0
-274 572 0
-574 575 0
-282 -576 575 0
282 574 -575 0
574 576 -575 0
278 -575 0
-278 575 0
-577 578 0
-571 -579 578 0
-573 -579 -574 578 0
571 573 577 -578 0
573 579 577 -578 0
571 579 577 -578 0
579 577 -578 0
571 574 577 -578 0
574 579 577 -578 0
282 -578 0
-282 578 0
-580 581 0
-289 -582 581 0
289 580 -581 0
580 582 -581 0
286 -581 0
-286 581 0
-583 584 0
-293 -585 584 0
293 583 -584 0
583 585 -584 0
289 -584 0
-289 584 0
-586 587 0
-297 -588 587 0
297 586 -587 0
586 588 -587 0
293 -587 0
-293 587 0
-589 590 0
-301 -591 590 0
301 589 -590 0
589 591 -590 0
297 -590 0
-297 590 0
-592 593 0
-305 -594 593 0
305 592 -593 0
592 594 -593 0
301 -593 0
-301 593 0
-595 596 0
-309 -597 596 0
309 595 -596 0
595 597 -596 0
305 -596 0
-305 596 0
-598 599 0
-589 -600 599 0
-592 -591 -600 599 0
-601 0
589 591 592 598 -599 0
591 592 600 598 -599 0
589 591 598 -599 0
591 600 598 -599 0
589 591 600 598 -599 0
589 592 594 598 -599 0
592 594 600 598 -599 0
589 591 594 598 -599 0
591 594 600 598 -599 0
589 594 600 598 -599 0
594 600 598 -599 0
589 592 600 598 -599 0
592 600 598 -599 0
589 600 598 -599 0
600 598 -599 0
589 592 595 598 -599 0
592 595 600 598 -599 0
589 591 595 598 -599 0
591 595 600 598 -599 0
589 595 600 598 -599 0
595 600 598 -599 0
309 -599 0
-309 599 0
-602 603 0
-316 -604 603 0
316 602 -603 0
602 604 -603 0
313 -603 0
-313 603 0
-605 606 0
-320 -607 606 0
320 605 -606 0
605 607 -606 0
316 -606 0
-316 606 0
-608 609 0
-324 -610 609 0
324 608 -609 0
608 610 -609 0
320 -609 0
-320 609 0
-611 612 0
-328 -613 612 0
328 611 -612 0
611 613 -612 0
324 -612 0
-324 612 0
-614 615 0
-608 -616 615 0
-611 -610 -616 615 0
608 611 614 -615 0
611 616 614 -615 0
608 610 614 -615 0
610 616 614 -615 0
608 616 614 -615 0
616 614 -615 0
328 -615 0
-328 615 0
-617 618 0
-335 -619 618 0
335 617 -618 0
617 619 -618 0
332 -618 0
-332 618 0
-620 621 0
-339 -622 621 0
339 620 -621 0
620 622 -621 0
335 -621 0
-335 621 0
-623 624 0
-343 -625 624 0
343 623 -624 0
623 625 -624 0
339 -624 0
-339 624 0
-626 627 0
-347 -628 627 0
347 626 -627 0
626 628 -627 0
343 -627 0
-343 627 0
-629 630 0
-623 -631 630 0
-625 -631 -626 630 0
623 625 629 -630 0
625 631 629 -630 0
623 631 629 -630 0
631 629 -630 0
623 626 629 -630 0
626 631 629 -630 0
347 -630 0
-347 630 0
-632 633 0
-354 -634 633 0
354 632 -633 0
632 634 -633 0
351 -633 0
-351 633 0
-635 636 0
-358 -637 636 0
358 635 -636 0
635 637 -636 0
354 -636 0
-354 636 0
358 -638 0
638 -358 0
-639 640 0
-365 -641 640 0
365 639 -640 0
639 641 -640 0
362 -640 0
-362 640 0
-642 643 0
-369 -644 643 0
369 642 -643 0
642 644 -643 0
365 -643 0
-365 643 0
-645 646 0
-373 -647 646 0
373 645 -646 0
645 647 -646 0
369 -646 0
-369 646 0
-648 649 0
-377 -650 649 0
377 648 -649 0
648 650 -649 0
373 -649 0
-373 649 0
-651 652 0
-645 -653 652 0
-647 -653 -648 652 0
645 647 651 -652 0
647 653 651 -652 0
645 653 651 -652 0
653 651 -652 0
645 648 651 -652 0
648 653 651 -652 0
377 -652 0
-377 652 0
654 -383 -655 0
383 -654 -655 0
-654 -383 655 0
383 654 655 0
-655 0
656 -386 -657 0
386 -656 -657 0
-656 -386 657 0
386 656 657 0
-657 0
658 -389 -659 0
389 -658 -659 0
-658 -389 659 0
389 658 659 0
-659 0
660 -392 -661 0
392 -660 -661 0
-660 -392 661 0
392 660 661 0
-661 0
662 -395 -663 0
395 -662 -663 0
-662 -395 663 0
395 662 663 0
-663 0
664 -399 -665 0
399 -664 -665 0
-664 -399 665 0
399 664 665 0
-665 0
666 -402 -667 0
402 -666 -667 0
-666 -402 667 0
402 666 667 0
-667 0
668 -405 -669 0
405 -668 -669 0
-668 -405 669 0
405 668 669 0
-669 0
670 -671 -672 0
671 -670 -672 0
-670 -671 672 0
671 670 672 0
-672 0
673 -409 -674 0
409 -673 -674 0
-673 -409 674 0
409 673 674 0
-674 0
675 -676 -677 0
676 -675 -677 0
-675 -676 677 0
676 675 677 0
-677 0
678 -413 -679 0
413 -678 -679 0
-678 -413 679 0
413 678 679 0
-679 0
680 -416 -681 0
416 -680 -681 0
-680 -416 681 0
416 680 681 0
-681 0
682 -419 -683 0
419 -682 -683 0
-682 -419 683 0
419 682 683 0
-683 0
684 -422 -685 0
422 -684 -685 0
-684 -422 685 0
422 684 685 0
-685 0
686 -425 -687 0
425 -686 -687 0
-686 -425 687 0
425 686 687 0
-687 0
688 -428 -689 0
428 -688 -689 0
-688 -428 689 0
428 688 689 0
-689 0
690 -431 -691 0
431 -690 -691 0
-690 -431 691 0
431 690 691 0
-691 0
692 -434 -693 0
434 -692 -693 0
-692 -434 693 0
434 692 693 0
-693 0
694 -437 -695 0
437 -694 -695 0
-694 -437 695 0
437 694 695 0
-695 0
696 -440 -697 0
440 -696 -697 0
-696 -440 697 0
440 696 697 0
-697 0
698 -699 -700 0
699 -698 -700 0
-698 -699 700 0
699 698 700 0
-700 0
701 -444 -702 0
444 -701 -702 0
-701 -444 702 0
444 701 702 0
-702 0
703 -447 -704 0
447 -703 -704 0
-703 -447 704 0
447 703 704 0
-704 0
705 -450 -706 0
450 -705 -706 0
-705 -450 706 0
450 705 706 0
-706 0
707 -453 -708 0
453 -707 -708 0
-707 -453 708 0
453 707 708 0
-708 0
709 -456 -710 0
456 -709 -710 0
-709 -456 710 0
456 709 710 0
-710 0
711 -459 -712 0
459 -711 -712 0
-711 -459 712 0
459 711 712 0
-712 0
713 -462 -714 0
462 -713 -714 0
-713 -462 714 0
462 713 714 0
-714 0
715 -465 -716 0
465 -715 -716 0
-715 -465 716 0
465 715 716 0
-716 0
717 -468 -718 0
468 -717 -718 0
-717 -468 718 0
468 717 718 0
-718 0
719 -471 -720 0
471 -719 -720 0
-719 -471 720 0
471 719 720 0
-720 0
721 -474 -722 0
474 -721 -722 0
-721 -474 722 0
474 721 722 0
-722 0
723 -477 -724 0
477 -723 -724 0
-723 -477 724 0
477 723 724 0
-724 0
725 -480 -726 0
480 -725 -726 0
-725 -480 726 0
480 725 726 0
-726 0
727 -483 -728 0
483 -727 -728 0
-727 -483 728 0
483 727 728 0
-728 0
729 -486 -730 0
486 -729 -730 0
-729 -486 730 0
486 729 730 0
-730 0
731 -489 -732 0
489 -731 -732 0
-731 -489 732 0
489 731 732 0
-732 0
733 -734 -735 0
734 -733 -735 0
-733 -734 735 0
734 733 735 0
-735 0
736 -493 -737 0
493 -736 -737 0
-736 -493 737 0
493 736 737 0
-737 0
738 -496 -739 0
496 -738 -739 0
-738 -496 739 0
496 738 739 0
-739 0
740 -499 -741 0
499 -740 -741 0
-740 -499 741 0
499 740 741 0
-741 0
742 -743 -744 0
743 -742 -744 0
-742 -743 744 0
743 742 744 0
-744 0
745 -503 -746 0
503 -745 -746 0
-745 -503 746 0
503 745 746 0
-746 0
747 -506 -748 0
506 -747 -748 0
-747 -506 748 0
506 747 748 0
-748 0
749 -509 -750 0
509 -749 -750 0
-749 -509 750 0
509 749 750 0
-750 0
751 -512 -752 0
512 -751 -752 0
-751 -512 752 0
512 751 752 0
-752 0
753 -515 -754 0
515 -753 -754 0
-753 -515 754 0
515 753 754 0
-754 0
755 -518 -756 0
518 -755 -756 0
-755 -518 756 0
518 755 756 0
-756 0
757 -521 -758 0
521 -757 -758 0
-757 -521 758 0
521 757 758 0
-758 0
759 -524 -760 0
524 -759 -760 0
-759 -524 760 0
524 759 760 0
-760 0
761 -762 -763 0
762 -761 -763 0
-761 -762 763 0
762 761 763 0
-763 0
764 -528 -765 0
528 -764 -765 0
-764 -528 765 0
528 764 765 0
-765 0
766 -531 -767 0
531 -766 -767 0
-766 -531 767 0
531 766 767 0
-767 0
768 -534 -769 0
534 -768 -769 0
-768 -534 769 0
534 768 769 0
-769 0
770 -537 -771 0
537 -770 -771 0
-770 -537 771 0
537 770 771 0
-771 0
772 -540 -773 0
540 -772 -773 0
-772 -540 773 0
540 772 773 0
-773 0
774 -543 -775 0
543 -774 -775 0
-774 -543 775 0
543 774 775 0
-775 0
776 -546 -777 0
546 -776 -777 0
-776 -546 777 0
546 776 777 0
-777 0
778 -549 -779 0
549 -778 -779 0
-778 -549 779 0
549 778 779 0
-779 0
780 -552 -781 0
552 -780 -781 0
-780 -552 781 0
552 780 781 0
-781 0
782 -555 -783 0
555 -782 -783 0
-782 -555 783 0
555 782 783 0
-783 0
784 -558 -785 0
558 -784 -785 0
-784 -558 785 0
558 784 785 0
-785 0
786 -561 -787 0
561 -786 -787 0
-786 -561 787 0
561 786 787 0
-787 0
788 -564 -789 0
564 -788 -789 0
-788 -564 789 0
564 788 789 0
-789 0
790 -567 -791 0
567 -790 -791 0
-790 -567 791 0
567 790 791 0
-791 0
792 -570 -793 0
570 -792 -793 0
-792 -570 793 0
570 792 793 0
-793 0
794 -573 -795 0
573 -794 -795 0
-794 -573 795 0
573 794 795 0
-795 0
796 -576 -797 0
576 -796 -797 0
-796 -576 797 0
576 796 797 0
-797 0
798 -579 -799 0
579 -798 -799 0
-798 -579 799 0
579 798 799 0
-799 0
800 -582 -801 0
582 -800 -801 0
-800 -582 801 0
582 800 801 0
-801 0
802 -585 -803 0
585 -802 -803 0
-802 -585 803 0
585 802 803 0
-803 0
804 -588 -805 0
588 -804 -805 0
-804 -588 805 0
588 804 805 0
-805 0
806 -591 -807 0
591 -806 -807 0
-806 -591 807 0
591 806 807 0
-807 0
808 -594 -809 0
594 -808 -809 0
-808 -594 809 0
594 808 809 0
-809 0
810 -597 -811 0
597 -810 -811 0
-810 -597 811 0
597 810 811 0
-811 0
812 -600 -813 0
600 -812 -813 0
-812 -600 813 0
600 812 813 0
-813 0
814 -604 -815 0
604 -814 -815 0
-814 -604 815 0
604 814 815 0
-815 0
816 -607 -817 0
607 -816 -817 0
-816 -607 817 0
607 816 817 0
-817 0
818 -610 -819 0
610 -818 -819 0
-818 -610 819 0
610 818 819 0
-819 0
820 -613 -821 0
613 -820 -821 0
-820 -613 821 0
613 820 821 0
-821 0
822 -616 -823 0
616 -822 -823 0
-822 -616 823 0
616 822 823 0
-823 0
824 -619 -825 0
619 -824 -825 0
-824 -619 825 0
619 824 825 0
-825 0
826 -622 -827 0
622 -826 -827 0
-826 -622 827 0
622 826 827 0
-827 0
828 -625 -829 0
625 -828 -829 0
-828 -625 829 0
625 828 829 0
-829 0
830 -628 -831 0
628 -830 -831 0
-830 -628 831 0
628 830 831 0
-831 0
832 -631 -833 0
631 -832 -833 0
-832 -631 833 0
631 832 833 0
-833 0
834 -634 -835 0
634 -834 -835 0
-834 -634 835 0
634 834 835 0
-835 0
836 -637 -837 0
637 -836 -837 0
-836 -637 837 0
637 836 837 0
-837 0
838 -839 -840 0
839 -838 -840 0
-838 -839 840 0
839 838 840 0
-840 0
841 -641 -842 0
641 -841 -842 0
-841 -641 842 0
641 841 842 0
-842 0
843 -644 -844 0
644 -843 -844 0
-843 -644 844 0
644 843 844 0
-844 0
845 -647 -846 0
647 -845 -846 0
-845 -647 846 0
647 845 846 0
-846 0
847 -650 -848 0
650 -847 -848 0
-847 -650 848 0
650 847 848 0
-848 0
849 -653 -850 0
653 -849 -850 0
-849 -653 850 0
653 849 850 0
-850 0
654 0
-656 0
658 0
-660 0
-662 0
664 0
666 0
668 0
-670 0
-673 0
675 0
678 0
680 0
-682 0
-684 0
686 0
-688 0
690 0
692 0
694 0
696 0
-698 0
701 0
-703 0
705 0
707 0
-709 0
-711 0
713 0
715 0
717 0
-719 0
-721 0
723 0
725 0
727 0
729 0
731 0
-733 0
-736 0
738 0
740 0
-742 0
745 0
-747 0
-749 0
-751 0
753 0
-755 0
757 0
759 0
761 0
-764 0
766 0
768 0
-770 0
772 0
-774 0
-776 0
778 0
780 0
-782 0
784 0
-786 0
788 0
790 0
-792 0
-794 0
-796 0
-798 0
-800 0
802 0
-804 0
-806 0
-808 0
-810 0
-812 0
814 0
816 0
818 0
820 0
-822 0
824 0
826 0
-828 0
-830 0
-832 0
834 0
-836 0
838 0
841 0
-843 0
845 0
-847 0
-849 0
-381 0
-384 0
-387 0
-390 0
-393 0
-397 0
-400 0
-403 0
-406 0
-407 0
-410 0
-411 0
-414 0
-417 0
-420 0
-423 0
-426 0
-429 0
-432 0
-435 0
-438 0
-441 0
-442 0
-445 0
-448 0
-451 0
-454 0
-457 0
-460 0
-463 0
-466 0
-469 0
-472 0
-475 0
-478 0
-481 0
-484 0
-487 0
-490 0
-491 0
-494 0
-497 0
-500 0
-501 0
504 0
-507 0
-510 0
-513 0
516 0
-519 0
522 0
-525 0
-526 0
-529 0
532 0
535 0
-538 0
-541 0
-544 0
-547 0
550 0
553 0
-556 0
-559 0
-562 0
-565 0
568 0
571 0
574 0
-577 0
-580 0
-583 0
586 0
-589 0
-592 0
595 0
-598 0
-602 0
605 0
608 0
-611 0
-614 0
-617 0
620 0
623 0
626 0
-629 0
-632 0
635 0
638 0
-639 0
642 0
645 0
648 0
-651 0
-851 -852 0
-851 23 0
-851 -26 0
-851 30 0
-851 -34 0
-851 -38 0
-851 42 0
-851 45 0
-851 49 0
-851 -53 0
-851 -57 0
-851 60 0
-851 64 0
-851 67 0
-851 -71 0
-851 -75 0
79 -851 0
-851 -83 0
-851 87 0
-851 91 0
-851 94 0
-851 98 0
-851 -102 0
-851 106 0
-851 -109 0
-851 113 0
-851 117 0
-851 -120 0
-851 -124 0
-851 128 0
-851 132 0
-851 136 0
-851 -139 0
-851 -143 0
-851 147 0
-851 151 0
-851 155 0
-851 158 0
-851 162 0
-851 -166 0
-851 -170 0
-851 173 0
-851 177 0
-851 -181 0
-851 185 0
-851 -188 0
-851 -192 0
-851 -196 0
-851 200 0
-851 -204 0
-851 208 0
-851 211 0
-851 215 0
-851 -219 0
-851 222 0
-851 226 0
-851 -230 0
-851 234 0
-851 -238 0
-851 -242 0
-851 245 0
-851 249 0
-851 -253 0
-851 257 0
-851 -261 0
-851 264 0
-851 268 0
-851 -272 0
-851 -276 0
-851 -280 0
-851 -284 0
-851 -288 0
-851 291 0
-851 -295 0
-851 -299 0
-851 -303 0
-851 -307 0
-851 -311 0
-851 315 0
-851 318 0
-851 322 0
-851 326 0
-851 -330 0
-851 334 0
-851 337 0
-851 -341 0
-851 -345 0
-851 -349 0
-851 353 0
-851 -356 0
-851 360 0
-851 364 0
-851 -367 0
-851 371 0
-851 -375 0
-851 -379 0
-852 -23 0
-852 -26 0
-852 -30 0
-852 -34 0
-852 -38 0
-852 -42 0
-852 -45 0
-852 -49 0
-852 -53 0
-852 -57 0
-852 -60 0
-852 -64 0
-852 -67 0
-852 -71 0
-852 -75 0
-852 -79 0
-852 -83 0
-852 -87 0
-852 -91 0
-852 -94 0
-852 -98 0
-852 -102 0
-852 -106 0
-852 -109 0
-852 -113 0
-852 -117 0
-852 -120 0
-852 -124 0
-852 -128 0
-852 -132 0
-852 -136 0
-852 -139 0
-852 -143 0
-852 -147 0
-852 -151 0
-852 -155 0
-852 -158 0
-852 -162 0
-852 -166 0
-852 -170 0
-852 -173 0
-852 -177 0
-852 -181 0
-852 -185 0
-852 188 0
-852 -192 0
-852 -196 0
-852 -200 0
-852 204 0
-852 -208 0
-852 211 0
-852 -215 0
-852 -219 0
-852 -222 0
-852 226 0
-852 230 0
-852 -234 0
-852 -238 0
-852 -242 0
-852 -245 0
-852 249 0
-852 253 0
-852 -257 0
-852 -261 0
-852 -264 0
-852 -268 0
-852 272 0
-852 276 0
-852 280 0
-852 -284 0
-852 -288 0
-852 -291 0
-852 295 0
-852 -299 0
-852 -303 0
-852 307 0
-852 -311 0
-852 -315 0
-852 318 0
-852 322 0
-852 -326 0
-852 -330 0
-852 -334 0
-852 337 0
-852 341 0
-852 345 0
-852 -349 0
-852 -353 0
-852 356 0
-852 360 0
-852 -364 0
-852 367 0
-852 371 0
-852 375 0
-852 -379 0
851 852 0
-853 0
-854 0
-855 0
-856 0
-857 0
-858 0
-859 0
-860 0
